40
1 0 5
2 0 4
2 1 2
3 0 2
3 1 3
3 2 2
4 0 2
4 1 6
4 2 3
4 3 3
5 0 4
5 1 6
5 2 5
5 3 3
5 4 5
6 0 6
6 1 3
6 2 6
6 3 1
6 4 6
6 5 2
7 0 6
7 1 4
7 2 6
7 3 2
7 4 5
7 5 5
7 6 1
8 0 3
8 1 6
8 2 1
8 3 5
8 4 3
8 5 4
8 6 5
8 7 3
9 0 6
9 1 3
9 2 6
9 3 2
9 4 5
9 5 6
9 6 5
9 7 6
9 8 1
10 0 5
10 1 2
10 2 6
10 3 6
10 4 4
10 5 1
10 6 3
10 7 5
10 8 6
10 9 6
11 0 6
11 1 3
11 2 5
11 3 1
11 4 4
11 5 3
11 6 2
11 7 3
11 8 2
11 9 2
11 10 5
12 0 4
12 1 5
12 2 3
12 3 6
12 4 6
12 5 1
12 6 3
12 7 2
12 8 2
12 9 5
12 10 2
12 11 1
13 0 3
13 1 3
13 2 1
13 3 1
13 4 6
13 5 3
13 6 6
13 7 3
13 8 5
13 9 3
13 10 5
13 11 2
13 12 5
14 0 4
14 1 4
14 2 6
14 3 1
14 4 6
14 5 3
14 6 1
14 7 3
14 8 5
14 9 3
14 10 4
14 11 6
14 12 4
14 13 5
15 0 2
15 1 3
15 2 3
15 3 3
15 4 3
15 5 4
15 6 5
15 7 2
15 8 2
15 9 5
15 10 4
15 11 3
15 12 3
15 13 4
15 14 3
16 0 5
16 1 6
16 2 5
16 3 6
16 4 3
16 5 2
16 6 1
16 7 3
16 8 1
16 9 3
16 10 1
16 11 5
16 12 5
16 13 5
16 14 3
16 15 2
17 0 5
17 1 1
17 2 3
17 3 3
17 4 3
17 5 6
17 6 1
17 7 2
17 8 2
17 9 4
17 10 4
17 11 1
17 12 2
17 13 2
17 14 2
17 15 2
17 16 3
18 0 6
18 1 2
18 2 3
18 3 2
18 4 6
18 5 1
18 6 2
18 7 4
18 8 2
18 9 1
18 10 3
18 11 5
18 12 4
18 13 5
18 14 6
18 15 3
18 16 4
18 17 4
19 0 2
19 1 4
19 2 4
19 3 3
19 4 1
19 5 3
19 6 4
19 7 2
19 8 6
19 9 1
19 10 5
19 11 3
19 12 3
19 13 4
19 14 4
19 15 3
19 16 5
19 17 2
19 18 4
20 0 6
20 1 3
20 2 6
20 3 6
20 4 2
20 5 5
20 6 2
20 7 2
20 8 6
20 9 6
20 10 6
20 11 1
20 12 1
20 13 4
20 14 3
20 15 2
20 16 1
20 17 6
20 18 3
20 19 3
21 0 2
21 1 4
21 2 3
21 3 3
21 4 4
21 5 2
21 6 2
21 7 3
21 8 6
21 9 1
21 10 5
21 11 5
21 12 5
21 13 1
21 14 2
21 15 6
21 16 5
21 17 3
21 18 3
21 19 4
21 20 5
22 0 5
22 1 3
22 2 5
22 3 5
22 4 4
22 5 3
22 6 5
22 7 4
22 8 5
22 9 2
22 10 5
22 11 4
22 12 3
22 13 4
22 14 3
22 15 5
22 16 2
22 17 6
22 18 1
22 19 2
22 20 2
22 21 6
23 0 1
23 1 2
23 2 1
23 3 6
23 4 5
23 5 5
23 6 4
23 7 3
23 8 3
23 9 5
23 10 5
23 11 2
23 12 2
23 13 2
23 14 4
23 15 5
23 16 6
23 17 6
23 18 3
23 19 6
23 20 3
23 21 1
23 22 4
24 0 5
24 1 1
24 2 6
24 3 3
24 4 1
24 5 2
24 6 1
24 7 6
24 8 2
24 9 6
24 10 4
24 11 4
24 12 3
24 13 6
24 14 2
24 15 3
24 16 6
24 17 2
24 18 5
24 19 6
24 20 2
24 21 2
24 22 6
24 23 4
25 0 5
25 1 5
25 2 1
25 3 4
25 4 4
25 5 3
25 6 4
25 7 1
25 8 1
25 9 4
25 10 2
25 11 5
25 12 5
25 13 4
25 14 1
25 15 4
25 16 1
25 17 4
25 18 2
25 19 4
25 20 3
25 21 1
25 22 2
25 23 2
25 24 1
26 0 2
26 1 3
26 2 4
26 3 1
26 4 1
26 5 2
26 6 2
26 7 1
26 8 1
26 9 5
26 10 2
26 11 2
26 12 5
26 13 4
26 14 6
26 15 1
26 16 6
26 17 3
26 18 5
26 19 1
26 20 2
26 21 2
26 22 5
26 23 5
26 24 3
26 25 5
27 0 4
27 1 1
27 2 4
27 3 2
27 4 1
27 5 2
27 6 4
27 7 5
27 8 2
27 9 3
27 10 2
27 11 3
27 12 2
27 13 5
27 14 4
27 15 4
27 16 5
27 17 2
27 18 1
27 19 3
27 20 2
27 21 4
27 22 4
27 23 4
27 24 5
27 25 3
27 26 5
28 0 4
28 1 3
28 2 6
28 3 1
28 4 2
28 5 5
28 6 6
28 7 2
28 8 6
28 9 2
28 10 4
28 11 2
28 12 6
28 13 2
28 14 5
28 15 2
28 16 2
28 17 3
28 18 4
28 19 5
28 20 3
28 21 2
28 22 1
28 23 6
28 24 6
28 25 1
28 26 5
28 27 2
29 0 6
29 1 1
29 2 2
29 3 5
29 4 5
29 5 3
29 6 5
29 7 6
29 8 4
29 9 2
29 10 5
29 11 4
29 12 6
29 13 1
29 14 1
29 15 4
29 16 1
29 17 1
29 18 6
29 19 3
29 20 5
29 21 4
29 22 2
29 23 5
29 24 6
29 25 5
29 26 2
29 27 5
29 28 5
30 0 5
30 1 6
30 2 6
30 3 6
30 4 1
30 5 4
30 6 5
30 7 5
30 8 6
30 9 6
30 10 4
30 11 3
30 12 6
30 13 4
30 14 2
30 15 6
30 16 3
30 17 1
30 18 5
30 19 6
30 20 4
30 21 4
30 22 3
30 23 1
30 24 6
30 25 3
30 26 2
30 27 6
30 28 5
30 29 6
31 0 2
31 1 4
31 2 2
31 3 3
31 4 3
31 5 2
31 6 4
31 7 4
31 8 2
31 9 2
31 10 6
31 11 2
31 12 5
31 13 4
31 14 6
31 15 3
31 16 3
31 17 4
31 18 4
31 19 4
31 20 3
31 21 5
31 22 3
31 23 5
31 24 3
31 25 1
31 26 4
31 27 4
31 28 1
31 29 1
31 30 2
32 0 5
32 1 6
32 2 5
32 3 2
32 4 5
32 5 5
32 6 6
32 7 3
32 8 1
32 9 5
32 10 4
32 11 3
32 12 1
32 13 3
32 14 4
32 15 5
32 16 1
32 17 3
32 18 1
32 19 4
32 20 2
32 21 1
32 22 1
32 23 6
32 24 4
32 25 3
32 26 3
32 27 5
32 28 1
32 29 2
32 30 2
32 31 1
33 0 3
33 1 4
33 2 4
33 3 1
33 4 2
33 5 6
33 6 5
33 7 5
33 8 2
33 9 4
33 10 2
33 11 5
33 12 4
33 13 6
33 14 2
33 15 1
33 16 2
33 17 3
33 18 5
33 19 5
33 20 6
33 21 6
33 22 6
33 23 4
33 24 4
33 25 2
33 26 4
33 27 6
33 28 2
33 29 6
33 30 4
33 31 2
33 32 5
34 0 3
34 1 6
34 2 6
34 3 6
34 4 3
34 5 2
34 6 2
34 7 3
34 8 2
34 9 2
34 10 4
34 11 2
34 12 6
34 13 5
34 14 5
34 15 4
34 16 2
34 17 6
34 18 3
34 19 3
34 20 4
34 21 4
34 22 3
34 23 6
34 24 1
34 25 2
34 26 2
34 27 3
34 28 3
34 29 3
34 30 6
34 31 5
34 32 4
34 33 2
35 0 6
35 1 3
35 2 2
35 3 4
35 4 1
35 5 6
35 6 4
35 7 4
35 8 3
35 9 2
35 10 3
35 11 1
35 12 2
35 13 3
35 14 6
35 15 2
35 16 3
35 17 2
35 18 4
35 19 1
35 20 1
35 21 1
35 22 1
35 23 2
35 24 4
35 25 2
35 26 4
35 27 3
35 28 6
35 29 4
35 30 5
35 31 4
35 32 1
35 33 4
35 34 6
36 0 6
36 1 6
36 2 3
36 3 3
36 4 5
36 5 5
36 6 4
36 7 2
36 8 5
36 9 4
36 10 4
36 11 6
36 12 6
36 13 3
36 14 5
36 15 6
36 16 6
36 17 5
36 18 6
36 19 6
36 20 6
36 21 3
36 22 4
36 23 3
36 24 1
36 25 4
36 26 4
36 27 2
36 28 1
36 29 3
36 30 6
36 31 3
36 32 1
36 33 2
36 34 6
36 35 6
37 0 4
37 1 2
37 2 2
37 3 5
37 4 6
37 5 5
37 6 2
37 7 1
37 8 6
37 9 2
37 10 2
37 11 4
37 12 3
37 13 5
37 14 2
37 15 4
37 16 5
37 17 2
37 18 2
37 19 6
37 20 6
37 21 4
37 22 4
37 23 6
37 24 2
37 25 2
37 26 2
37 27 5
37 28 2
37 29 5
37 30 5
37 31 5
37 32 4
37 33 1
37 34 5
37 35 1
37 36 5
38 0 3
38 1 2
38 2 1
38 3 5
38 4 4
38 5 5
38 6 3
38 7 3
38 8 1
38 9 4
38 10 2
38 11 6
38 12 4
38 13 5
38 14 5
38 15 5
38 16 5
38 17 6
38 18 6
38 19 6
38 20 6
38 21 1
38 22 1
38 23 1
38 24 4
38 25 2
38 26 1
38 27 4
38 28 3
38 29 1
38 30 3
38 31 6
38 32 1
38 33 3
38 34 6
38 35 3
38 36 6
38 37 3
39 0 1
39 1 2
39 2 6
39 3 4
39 4 5
39 5 1
39 6 4
39 7 2
39 8 1
39 9 1
39 10 2
39 11 1
39 12 2
39 13 1
39 14 6
39 15 3
39 16 6
39 17 1
39 18 1
39 19 4
39 20 3
39 21 2
39 22 4
39 23 6
39 24 6
39 25 1
39 26 2
39 27 2
39 28 3
39 29 2
39 30 3
39 31 6
39 32 6
39 33 1
39 34 2
39 35 5
39 36 4
39 37 3
39 38 4
